language ESSENCE' 1.0
$ minion Nodes: 2
$ minion TotalTime: 0.004679
$ Savile Row TotalTime: 1.303
letting x_SetExplicit_SetExplicitVarSize_tuple2_SetExplicitVarSize_tuple2 be [[[2, 2;int(1..2)], 
[2, 3;int(1..2)];int(1..2)];int(1..1)]
letting x_SetExplicit_SetExplicitVarSize_tuple2_SetExplicitVarSize_tuple1 be [[[false, true;int(1..2)], 
[true, true;int(1..2)];int(1..2)];int(1..1)]
letting x_SetExplicit_SetExplicitVarSize_tuple1 be [[true, true;int(1..2)];int(1..1)]
